3 3 2
20 2 193 1 82 2 77 0 172 1 138 2 183 1 129 0 123 2 122 0 196 2 129 1 100 0 162 2 43 1 117 0 134 2 190 1 35 2 144 1 157 
20 0 46 2 194 1 58 0 99 2 80 1 85 0 22 1 32 2 80 1 105 0 132 1 126 0 98 2 120 0 99 2 28 1 5 0 7 2 80 0 36 
20 2 89 0 78 2 159 0 63 2 146 1 102 0 63 1 42 2 41 1 87 0 181 2 3 0 119 1 47 0 68 1 55 0 112 2 15 1 57 2 1 

-------------
